NAME : P132222.29073.tour
COMMENT : Length = 29073
COMMENT : Found by LKH-3 [Keld Helsgaun] Tue Dec 17 14:07:45 2024
TYPE : TOUR
DIMENSION : 190
TOUR_SECTION
1
171
2
172
3
173
4
174
5
175
6
176
7
177
8
178
9
179
10
180
11
181
12
182
13
167
134
122
147
133
137
142
128
146
170
125
164
157
152
165
126
139
136
135
140
129
148
145
143
154
155
121
151
119
120
131
124
161
162
144
141
156
163
166
132
160
168
153
149
158
138
150
123
159
169
130
127
183
14
184
15
185
16
66
26
53
62
24
46
47
38
34
23
59
25
56
40
55
51
50
31
58
69
35
43
21
65
30
67
27
57
37
48
39
64
61
42
52
60
45
68
44
33
41
28
32
63
22
36
29
54
49
186
17
96
113
76
86
95
88
73
85
89
75
105
83
79
72
90
116
104
81
106
99
118
92
115
110
111
74
107
87
114
94
97
117
108
70
91
80
98
78
102
71
100
103
101
84
77
109
82
93
112
187
18
188
19
189
20
190
-1
EOF
